0 55 121
1 120 128
2 101 131
3 111 131
4 117 128
5 120 130
6 128 132
7 124 131
8 125 133
9 122 131
10 108 132
11 123 129
12 127 129
13 116 128
14 100 127
15 86 125
16 121 123
17 114 121
18 119 119
19 116 118
20 111 116
21 90 116
22 114 114
23 93 111
24 107 111
25 94 112
26 72 117
27 107 113
28 94 110
29 83 107
30 93 106
31 99 103
32 94 100
33 98 99
34 60 99
35 97 99
36 95 98
37 42 98
38 82 98
39 81 98
40 65 96
41 86 96
42 82 94
43 91 93
44 92 92
45 68 94
46 65 92
47 79 90
48 65 87
49 85 85
50 84 87
51 86 87
52 60 85
53 74 85
54 76 83
55 82 84
56 73 84
57 79 84
58 75 81
59 66 78
60 76 78
61 70 76
62 73 75
63 57 74
64 71 73
65 65 72
66 67 72
67 69 72
68 70 72
69 69 70
70 68 69
71 54 70
72 43 70
73 59 68
74 59 65
75 55 62
76 39 61
77 59 60
78 52 58
79 58 59
80 49 60
81 57 58
82 49 61
83 56 58
84 45 58
85 57 58
86 43 56
87 41 55
88 35 52
89 44 48
90 40 46
91 35 44
92 36 44
93 39 42
94 29 41
95 39 40
96 37 38
97 27 36
98 35 35
99 34 35
100 34 36
101 33 36
102 37 37
103 15 36
104 33 34
105 33 33
106 31 34
107 31 32
108 29 30
109 25 31
110 16 30
111 27 29
112 18 28
113 18 25
114 23 25
115 23 24
116 16 21
117 20 22
118 19 20
119 19 20
120 14 21
121 17 23
122 23 23
123 15 23
124 19 21
125 13 18
126 14 18
127 16 18
128 14 18
129 12 18
130 12 19
131 11 17
132 14 14
133 9 13
134 12 12
135 10 9
136 7 8
137 6 9
138 4 8
139 7 8
140 6 7
141 6 6
142 3 5
143 2 3
144 1 2
145 1 1

